NAME : E-n101-k14.711575.tour
COMMENT : Length = 711575
COMMENT : Found by LKH [Keld Helsgaun] Sun Dec 17 22:08:11 2017
TYPE : TOUR
DIMENSION : 114
TOUR_SECTION
1
95
96
98
93
60
99
38
114
14
88
43
15
45
39
106
89
8
83
49
48
20
105
90
61
6
62
17
87
108
27
13
81
69
30
25
55
104
41
22
74
73
57
76
75
23
42
107
54
59
3
58
16
44
103
70
71
31
21
67
72
36
66
110
53
19
84
85
18
46
9
47
37
50
65
111
5
56
26
40
24
68
102
32
11
63
12
64
91
33
112
7
97
100
94
86
92
101
113
29
77
78
4
80
79
35
109
28
2
51
34
82
10
52
-1
EOF
